c Vstupni promenne (CNF index -> nazev):
c   1 -> a1
c   2 -> a2
c   3 -> a3
c   4 -> a4
c   5 -> a5
c   6 -> a6
c   7 -> a7
c   8 -> a8
c   9 -> a9
c   10 -> a10
c   11 -> a11
c   12 -> a12
c   13 -> a13
c   14 -> a14
c   15 -> a15
c   16 -> a16
c   17 -> a17
c   18 -> a18
c   19 -> a19
c   20 -> a20
c   21 -> a21
c   22 -> a22
c   23 -> a23
c   24 -> a24
c   25 -> a25
c   26 -> a26
c   27 -> a27
c   28 -> a28
c   29 -> a29
c   30 -> a30
c   31 -> a31
c   32 -> a32
c   33 -> a33
c   34 -> a34
c   35 -> a35
c   36 -> a36
c   37 -> a37
c   38 -> a38
c   39 -> a39
c   40 -> a40
c   41 -> a41
c   42 -> a42
c   43 -> a43
c   44 -> a44
c   45 -> a45
c   46 -> a46
c   47 -> a47
c   48 -> a48
c   49 -> a49
c   50 -> a50
c   51 -> a51
c   52 -> a52
c   53 -> a53
c   54 -> a54
c   55 -> a55
c   56 -> a56
c   57 -> a57
c   58 -> a58
c   59 -> a59
c   60 -> a60
c   61 -> a61
c   62 -> a62
c   63 -> a63
c   64 -> a64
c   65 -> a65
c   66 -> a66
c   67 -> a67
c   68 -> a68
c   69 -> a69
c   70 -> a70
c   71 -> a71
c   72 -> a72
c   73 -> a73
c   74 -> a74
c   75 -> a75
c   76 -> a76
c   77 -> a77
c   78 -> a78
c   79 -> a79
c   80 -> a80
c   81 -> a81
c   82 -> a82
c   83 -> a83
c   84 -> a84
c   85 -> a85
c   86 -> a86
c   87 -> a87
c   88 -> a88
c   89 -> a89
c   90 -> a90
c   91 -> a91
c   92 -> a92
c   93 -> a93
c   94 -> a94
c   95 -> a95
c   96 -> a96
c   97 -> a97
c   98 -> a98
c   99 -> a99
c   100 -> a100
c Pomocne promenne:
c   101, 102, 103, 104, 105, 106, 107, 108, 109, 110, 111, 112, 113, 114, 115, 116, 117, 118, 119, 120, 121, 122, 123, 124, 125, 126, 127, 128, 129, 130, 131, 132, 133, 134, 135, 136, 137, 138, 139, 140, 141, 142, 143, 144, 145, 146, 147, 148, 149, 150, 151, 152, 153, 154, 155, 156, 157, 158, 159, 160, 161, 162, 163, 164, 165, 166, 167, 168, 169, 170, 171, 172, 173, 174, 175, 176, 177, 178, 179, 180, 181, 182, 183, 184, 185, 186, 187, 188, 189, 190, 191, 192, 193, 194, 195, 196, 197, 198, 199
c Koren: 199
c
p cnf 199 298
-101 99 0
-101 100 0
101 -99 -100 0
-102 98 0
-102 101 0
102 -98 -101 0
-103 97 0
-103 102 0
103 -97 -102 0
-104 96 0
-104 103 0
104 -96 -103 0
-105 95 0
-105 104 0
105 -95 -104 0
-106 94 0
-106 105 0
106 -94 -105 0
-107 93 0
-107 106 0
107 -93 -106 0
-108 92 0
-108 107 0
108 -92 -107 0
-109 91 0
-109 108 0
109 -91 -108 0
-110 90 0
-110 109 0
110 -90 -109 0
-111 89 0
-111 110 0
111 -89 -110 0
-112 88 0
-112 111 0
112 -88 -111 0
-113 87 0
-113 112 0
113 -87 -112 0
-114 86 0
-114 113 0
114 -86 -113 0
-115 85 0
-115 114 0
115 -85 -114 0
-116 84 0
-116 115 0
116 -84 -115 0
-117 83 0
-117 116 0
117 -83 -116 0
-118 82 0
-118 117 0
118 -82 -117 0
-119 81 0
-119 118 0
119 -81 -118 0
-120 80 0
-120 119 0
120 -80 -119 0
-121 79 0
-121 120 0
121 -79 -120 0
-122 78 0
-122 121 0
122 -78 -121 0
-123 77 0
-123 122 0
123 -77 -122 0
-124 76 0
-124 123 0
124 -76 -123 0
-125 75 0
-125 124 0
125 -75 -124 0
-126 74 0
-126 125 0
126 -74 -125 0
-127 73 0
-127 126 0
127 -73 -126 0
-128 72 0
-128 127 0
128 -72 -127 0
-129 71 0
-129 128 0
129 -71 -128 0
-130 70 0
-130 129 0
130 -70 -129 0
-131 69 0
-131 130 0
131 -69 -130 0
-132 68 0
-132 131 0
132 -68 -131 0
-133 67 0
-133 132 0
133 -67 -132 0
-134 66 0
-134 133 0
134 -66 -133 0
-135 65 0
-135 134 0
135 -65 -134 0
-136 64 0
-136 135 0
136 -64 -135 0
-137 63 0
-137 136 0
137 -63 -136 0
-138 62 0
-138 137 0
138 -62 -137 0
-139 61 0
-139 138 0
139 -61 -138 0
-140 60 0
-140 139 0
140 -60 -139 0
-141 59 0
-141 140 0
141 -59 -140 0
-142 58 0
-142 141 0
142 -58 -141 0
-143 57 0
-143 142 0
143 -57 -142 0
-144 56 0
-144 143 0
144 -56 -143 0
-145 55 0
-145 144 0
145 -55 -144 0
-146 54 0
-146 145 0
146 -54 -145 0
-147 53 0
-147 146 0
147 -53 -146 0
-148 52 0
-148 147 0
148 -52 -147 0
-149 51 0
-149 148 0
149 -51 -148 0
-150 50 0
-150 149 0
150 -50 -149 0
-151 49 0
-151 150 0
151 -49 -150 0
-152 48 0
-152 151 0
152 -48 -151 0
-153 47 0
-153 152 0
153 -47 -152 0
-154 46 0
-154 153 0
154 -46 -153 0
-155 45 0
-155 154 0
155 -45 -154 0
-156 44 0
-156 155 0
156 -44 -155 0
-157 43 0
-157 156 0
157 -43 -156 0
-158 42 0
-158 157 0
158 -42 -157 0
-159 41 0
-159 158 0
159 -41 -158 0
-160 40 0
-160 159 0
160 -40 -159 0
-161 39 0
-161 160 0
161 -39 -160 0
-162 38 0
-162 161 0
162 -38 -161 0
-163 37 0
-163 162 0
163 -37 -162 0
-164 36 0
-164 163 0
164 -36 -163 0
-165 35 0
-165 164 0
165 -35 -164 0
-166 34 0
-166 165 0
166 -34 -165 0
-167 33 0
-167 166 0
167 -33 -166 0
-168 32 0
-168 167 0
168 -32 -167 0
-169 31 0
-169 168 0
169 -31 -168 0
-170 30 0
-170 169 0
170 -30 -169 0
-171 29 0
-171 170 0
171 -29 -170 0
-172 28 0
-172 171 0
172 -28 -171 0
-173 27 0
-173 172 0
173 -27 -172 0
-174 26 0
-174 173 0
174 -26 -173 0
-175 25 0
-175 174 0
175 -25 -174 0
-176 24 0
-176 175 0
176 -24 -175 0
-177 23 0
-177 176 0
177 -23 -176 0
-178 22 0
-178 177 0
178 -22 -177 0
-179 21 0
-179 178 0
179 -21 -178 0
-180 20 0
-180 179 0
180 -20 -179 0
-181 19 0
-181 180 0
181 -19 -180 0
-182 18 0
-182 181 0
182 -18 -181 0
-183 17 0
-183 182 0
183 -17 -182 0
-184 16 0
-184 183 0
184 -16 -183 0
-185 15 0
-185 184 0
185 -15 -184 0
-186 14 0
-186 185 0
186 -14 -185 0
-187 13 0
-187 186 0
187 -13 -186 0
-188 12 0
-188 187 0
188 -12 -187 0
-189 11 0
-189 188 0
189 -11 -188 0
-190 10 0
-190 189 0
190 -10 -189 0
-191 9 0
-191 190 0
191 -9 -190 0
-192 8 0
-192 191 0
192 -8 -191 0
-193 7 0
-193 192 0
193 -7 -192 0
-194 6 0
-194 193 0
194 -6 -193 0
-195 5 0
-195 194 0
195 -5 -194 0
-196 4 0
-196 195 0
196 -4 -195 0
-197 3 0
-197 196 0
197 -3 -196 0
-198 2 0
-198 197 0
198 -2 -197 0
-199 1 198 0
199 -1 0
199 -198 0
199 0
